Minimize
  obj: x0 + x1 + x2 + x3 + x4 + x5 + x6 + x7 + x8 + x9

Subject To
  c0: x0 + x1 + x4 + x5 + x6 + x8 + x9 = 81
  c1: x0 + x1 + x3 + x4 + x6 = 29
  c2: x1 + x3 + x6 + x9 = 26
  c3: x0 + x1 + x2 + x4 + x6 + x9 = 48
  c4: x1 + x5 + x7 + x8 + x9 = 56
  c5: x4 + x5 + x6 + x9 = 53
  c6: x2 + x4 + x5 + x9 = 53
  c7: x0 + x1 + x4 + x5 + x6 = 45

Bounds
  x0 >= 0
  x1 >= 0
  x2 >= 0
  x3 >= 0
  x4 >= 0
  x5 >= 0
  x6 >= 0
  x7 >= 0
  x8 >= 0
  x9 >= 0

Generals
  x0 x1 x2 x3 x4 x5 x6 x7 x8 x9

End
